param n := 2;

param m := 2;

param K := 500;

param a :=
1 	 0.315245
2 	 0.892889
;
 param A :=
[1, *, *]:  1	2	:=
1	0.155714	0.575858	
2	-0.631980	0.224062	

[2, *, *]:  1	2	:=
1	-0.892181	0.358138	
2	-0.159613	0.837204	
;